100 153168
1 15 94 80 54 32 72 39 31 13 34 58 41 19 23 8 65 92 5 7 61 3 52 44 59 12 100 88 57 29 60 93 89 35 84 69 77 64 33 2 4 22 49 95 56 50 18 68 43 70 73 46 51 87 55 28 10 36 27 71 91 83 79 78 66 20 90 38 9 11 75 86 30 63 24 81 99 98 14 45 76 74 67 21 40 16 6 47 26 48 82 97 25 42 96 37 17 62 53 85 
